
Gurobi 8.1.1 (win64) logging started 07/10/20 06:58:27

Changed value of parameter LogFile to Results/instance1_30_3_BendersBnC.log
   Prev: gurobi.log  Default: 
Changed value of parameter Heuristics to 0.0
   Prev: 0.05  Min: 0.0  Max: 1.0  Default: 0.05
Changed value of parameter lazyConstraints to 1
   Prev: 0  Min: 0  Max: 1  Default: 0
Changed value of parameter timeLimit to 7169.469456195831
   Prev: 1e+100  Min: 0.0  Max: 1e+100  Default: 1e+100
Optimize a model with 2037 rows, 776 columns and 4561 nonzeros
Variable types: 456 continuous, 320 integer (320 binary)
Coefficient statistics:
  Matrix range     [2e-02, 1e+00]
  Objective range  [3e-05, 1e-02]
  Bounds range     [1e+00, 1e+00]
  RHS range        [3e-02, 3e+01]
Presolve time: 0.01s
Presolved: 2037 rows, 776 columns, 6139 nonzeros
Variable types: 456 continuous, 320 integer (320 binary)

Root relaxation: objective 1.759057e-01, 1465 iterations, 0.05 seconds

    Nodes    |    Current Node    |     Objective Bounds      |     Work
 Expl Unexpl |  Obj  Depth IntInf | Incumbent    BestBd   Gap | It/Node Time

     0     0    0.17591    0   65          -    0.17591      -     -    0s
     0     0    0.18915    0   49          -    0.18915      -     -    0s
     0     0    0.19061    0   56          -    0.19061      -     -    0s
     0     0    0.19301    0   45          -    0.19301      -     -    0s
     0     0    0.19353    0   43          -    0.19353      -     -    0s
     0     0    0.19436    0   46          -    0.19436      -     -    0s
     0     0    0.19467    0   39          -    0.19467      -     -    0s
     0     0    0.19507    0   38          -    0.19507      -     -    0s
     0     0    0.19522    0   37          -    0.19522      -     -    0s
     0     0    0.19545    0   34          -    0.19545      -     -    0s
     0     0    0.19549    0   20          -    0.19549      -     -    0s
     0     0    0.19551    0   16          -    0.19551      -     -    0s
     0     0    0.19551    0   16          -    0.19551      -     -    0s
     0     0    0.19552    0   20          -    0.19552      -     -    0s
     0     0    0.19552    0   20          -    0.19552      -     -    0s
     0     2    0.19552    0   20          -    0.19552      -     -    0s
    50    51    0.20439   25    -          -    0.19555      -  47.1    7s
   103    92    0.23956   44    5          -    0.19555      -  39.8   11s
   118   101    0.24461   49    -          -    0.19557      -  40.0   17s
*  138   105              51       0.2460114    0.19558  20.5%  39.5   20s
   257   196    0.21672   56    -    0.24601    0.19566  20.5%  39.8   27s
*  278   172              58       0.2255210    0.19566  13.2%  40.1   31s
*  294   126              36       0.2105188    0.19566  7.06%  39.4   32s
   350   136     cutoff   20         0.21052    0.19611  6.85%  44.6   35s
   595   270    0.20972   30   15    0.21052    0.19883  5.55%  52.3   40s
*  612   262              28       0.2097973    0.19902  5.14%  51.6   41s
   750   330    0.20729    9   61    0.20980    0.20398  2.77%  53.6   45s
*  829   318              19       0.2071210    0.20532  0.87%  59.5   50s

Cutting planes:
  Gomory: 5
  MIR: 227
  Flow cover: 303
  Lazy constraints: 1

Explored 874 nodes (55328 simplex iterations) in 50.69 seconds
Thread count was 4 (of 4 available processors)

Solution count 5: 0.207121 0.209797 0.210519 ... 0.246011

Optimal solution found (tolerance 1.00e-04)
Best objective 2.071210481463e-01, best bound 2.071210481463e-01, gap 0.0000%
